; DUP1 ISZERO SWAP2 SWAP1 SWAP2 => SWAP1 DUP2 ISZERO
(set-option :produce-proofs true)
; 
(set-info :status unknown)
(declare-fun storage_t ((_ BitVec 256) (_ BitVec 256) Int (_ BitVec 256)) (_ BitVec 256))
(declare-fun storage_s ((_ BitVec 256) (_ BitVec 256) Int (_ BitVec 256)) (_ BitVec 256))
(declare-fun exc_halt_t (Int) Bool)
(declare-fun exc_halt_s (Int) Bool)
(declare-fun sc_t (Int) (_ BitVec 6))
(declare-fun stack_t ((_ BitVec 256) (_ BitVec 256) Int (_ BitVec 6)) (_ BitVec 256))
(declare-fun stack_s ((_ BitVec 256) (_ BitVec 256) Int (_ BitVec 6)) (_ BitVec 256))
(declare-fun sc_s (Int) (_ BitVec 6))
(declare-fun used_gas_t ((_ BitVec 256) (_ BitVec 256) Int) Int)
(declare-fun used_gas_s ((_ BitVec 256) (_ BitVec 256) Int) Int)
(assert
 (exists ((x_0 (_ BitVec 256)) (x_1 (_ BitVec 256)) )(let (($x2812 (forall ((w (_ BitVec 256)) )(let ((?x4388 (storage_t x_0 x_1 3 w)))
 (let ((?x11690 (storage_s x_0 x_1 5 w)))
 (= ?x11690 ?x4388))))
 ))
 (let (($x9131 (exc_halt_t 3)))
 (let (($x1862 (exc_halt_s 5)))
 (let (($x618 (= $x1862 $x9131)))
 (let (($x6150 (forall ((n (_ BitVec 6)) )(let ((?x10013 (sc_t 3)))
 (let (($x1842 (bvsle ?x10013 n)))
 (let ((?x3807 (stack_t x_0 x_1 3 n)))
 (let ((?x134 (stack_s x_0 x_1 5 n)))
 (let (($x882 (= ?x134 ?x3807)))
 (or $x882 $x1842)))))))
 ))
 (let ((?x10013 (sc_t 3)))
 (let ((?x4319 (sc_s 5)))
 (let (($x9086 (= ?x4319 ?x10013)))
 (let ((?x252 (used_gas_t x_0 x_1 0)))
 (let ((?x7349 (used_gas_s x_0 x_1 0)))
 (let (($x6460 (= ?x7349 ?x252)))
 (let (($x11812 (forall ((w (_ BitVec 256)) )(let ((?x10490 (storage_t x_0 x_1 0 w)))
 (let ((?x3829 (storage_s x_0 x_1 0 w)))
 (= ?x3829 ?x10490))))
 ))
 (let (($x56 (exc_halt_t 0)))
 (let (($x57 (exc_halt_s 0)))
 (let (($x58 (= $x57 $x56)))
 (let (($x11055 (forall ((n (_ BitVec 6)) )(let ((?x63 (sc_t 0)))
 (let (($x11418 (bvsle ?x63 n)))
 (let ((?x2114 (stack_t x_0 x_1 0 n)))
 (let ((?x10276 (stack_s x_0 x_1 0 n)))
 (let (($x7103 (= ?x10276 ?x2114)))
 (or $x7103 $x11418)))))))
 ))
 (let ((?x63 (sc_t 0)))
 (let ((?x72 (sc_s 0)))
 (let (($x73 (= ?x72 ?x63)))
 (let (($x2451 (= $x9131 (or (exc_halt_t 2) (not (bvsle (_ bv0 6) (bvadd (_ bv63 6) (sc_t 2))))))))
 (let (($x3431 (forall ((w (_ BitVec 256)) )(let ((?x6293 (storage_t x_0 x_1 2 w)))
 (let ((?x4388 (storage_t x_0 x_1 3 w)))
 (= ?x4388 ?x6293))))
 ))
 (let (($x7280 (forall ((n (_ BitVec 6)) )(let ((?x9193 (sc_t 2)))
 (let ((?x8475 (bvadd (_ bv63 6) ?x9193)))
 (let (($x592 (bvsle ?x8475 n)))
 (or $x592 (= (stack_t x_0 x_1 3 n) (stack_t x_0 x_1 2 n)))))))
 ))
 (let ((?x9193 (sc_t 2)))
 (let (($x5378 (= ?x10013 ?x9193)))
 (let (($x9767 (= (used_gas_t x_0 x_1 3) (+ 3 (used_gas_t x_0 x_1 2)))))
 (let (($x10432 (= (stack_t x_0 x_1 3 (bvadd (_ bv63 6) ?x10013)) (ite (= (stack_t x_0 x_1 2 (bvadd (_ bv63 6) ?x9193)) (_ bv0 256)) (_ bv1 256) (_ bv0 256)))))
 (let (($x11933 (not (bvsle (_ bv0 6) (bvadd (_ bv62 6) (sc_t 1))))))
 (let (($x11710 (exc_halt_t 1)))
 (let (($x7822 (not (= ((_ extract 6 6) (bvadd (_ bv1 7) (concat (_ bv0 1) (sc_t 1)))) (_ bv0 1)))))
 (let (($x10380 (exc_halt_t 2)))
 (let (($x10683 (forall ((w (_ BitVec 256)) )(let ((?x6018 (storage_t x_0 x_1 1 w)))
 (let ((?x6293 (storage_t x_0 x_1 2 w)))
 (= ?x6293 ?x6018))))
 ))
 (let (($x2866 (forall ((n (_ BitVec 6)) )(let ((?x1846 (stack_t x_0 x_1 1 n)))
 (let ((?x6571 (stack_t x_0 x_1 2 n)))
 (let (($x8284 (= ?x6571 ?x1846)))
 (let ((?x8615 (sc_t 1)))
 (let ((?x10630 (bvadd (_ bv62 6) ?x8615)))
 (let (($x4504 (bvsle ?x10630 n)))
 (or $x4504 $x8284))))))))
 ))
 (let (($x9971 (= ?x9193 (bvadd (_ bv1 6) (sc_t 1)))))
 (let ((?x6032 (used_gas_t x_0 x_1 2)))
 (let ((?x8615 (sc_t 1)))
 (let ((?x3138 (bvadd (_ bv63 6) ?x8615)))
 (let ((?x6386 (stack_t x_0 x_1 1 ?x3138)))
 (let ((?x10630 (bvadd (_ bv62 6) ?x8615)))
 (let ((?x6488 (stack_t x_0 x_1 1 ?x10630)))
 (let (($x221 (= $x11710 (or $x56 (not (bvsle (_ bv0 6) (bvadd (_ bv62 6) ?x63)))))))
 (let (($x375 (forall ((w (_ BitVec 256)) )(let ((?x10490 (storage_t x_0 x_1 0 w)))
 (let ((?x6018 (storage_t x_0 x_1 1 w)))
 (= ?x6018 ?x10490))))
 ))
 (let (($x9493 (forall ((n (_ BitVec 6)) )(or (bvsle (bvadd (_ bv62 6) (sc_t 0)) n) (= (stack_t x_0 x_1 1 n) (stack_t x_0 x_1 0 n))))
 ))
 (let (($x8010 (= ?x8615 ?x63)))
 (let ((?x7141 (used_gas_t x_0 x_1 1)))
 (let (($x6013 (= ?x7141 (+ 3 ?x252))))
 (let (($x5239 (= ?x6488 (stack_t x_0 x_1 0 (bvadd (_ bv63 6) ?x63)))))
 (let (($x225 (= ?x6386 (stack_t x_0 x_1 0 (bvadd (_ bv62 6) ?x63)))))
 (let (($x3563 (= $x1862 (or (exc_halt_s 4) (not (bvsle (_ bv0 6) (bvadd (_ bv61 6) (sc_s 4))))))))
 (let (($x10369 (forall ((w (_ BitVec 256)) )(let ((?x5846 (storage_s x_0 x_1 4 w)))
 (let ((?x11690 (storage_s x_0 x_1 5 w)))
 (= ?x11690 ?x5846))))
 ))
 (let (($x9718 (forall ((n (_ BitVec 6)) )(let ((?x9433 (sc_s 4)))
 (let ((?x6777 (bvadd (_ bv61 6) ?x9433)))
 (let (($x1894 (bvsle ?x6777 n)))
 (or $x1894 (= (stack_s x_0 x_1 5 n) (stack_s x_0 x_1 4 n)))))))
 ))
 (let ((?x9433 (sc_s 4)))
 (let (($x932 (= ?x4319 ?x9433)))
 (let (($x9624 (= (used_gas_s x_0 x_1 5) (+ 3 (used_gas_s x_0 x_1 4)))))
 (let ((?x7666 (bvadd (_ bv62 6) ?x9433)))
 (let ((?x11984 (stack_s x_0 x_1 4 ?x7666)))
 (let ((?x6129 (bvadd (_ bv63 6) ?x9433)))
 (let ((?x2339 (stack_s x_0 x_1 4 ?x6129)))
 (let (($x7481 (= (stack_s x_0 x_1 5 (bvadd (_ bv63 6) ?x4319)) (stack_s x_0 x_1 4 (bvadd (_ bv61 6) ?x9433)))))
 (let (($x9175 (exc_halt_s 4)))
 (let (($x6103 (= $x9175 (or (exc_halt_s 3) (not (bvsle (_ bv0 6) (bvadd (_ bv62 6) (sc_s 3))))))))
 (let (($x10377 (forall ((w (_ BitVec 256)) )(let ((?x3985 (storage_s x_0 x_1 3 w)))
 (let ((?x5846 (storage_s x_0 x_1 4 w)))
 (= ?x5846 ?x3985))))
 ))
 (let (($x7172 (forall ((n (_ BitVec 6)) )(let ((?x3851 (sc_s 3)))
 (let ((?x7786 (bvadd (_ bv62 6) ?x3851)))
 (let (($x11714 (bvsle ?x7786 n)))
 (let ((?x4192 (stack_s x_0 x_1 3 n)))
 (let ((?x807 (stack_s x_0 x_1 4 n)))
 (let (($x2313 (= ?x807 ?x4192)))
 (or $x2313 $x11714))))))))
 ))
 (let ((?x3851 (sc_s 3)))
 (let (($x951 (= ?x9433 ?x3851)))
 (let ((?x11263 (used_gas_s x_0 x_1 4)))
 (let (($x8103 (exc_halt_s 3)))
 (let (($x680 (= $x8103 (or (exc_halt_s 2) (not (bvsle (_ bv0 6) (bvadd (_ bv61 6) (sc_s 2))))))))
 (let (($x7408 (forall ((w (_ BitVec 256)) )(let ((?x2138 (storage_s x_0 x_1 2 w)))
 (let ((?x3985 (storage_s x_0 x_1 3 w)))
 (= ?x3985 ?x2138))))
 ))
 (let (($x6165 (forall ((n (_ BitVec 6)) )(let ((?x6101 (stack_s x_0 x_1 2 n)))
 (let ((?x4192 (stack_s x_0 x_1 3 n)))
 (let (($x2264 (= ?x4192 ?x6101)))
 (let ((?x2272 (sc_s 2)))
 (let ((?x5654 (bvadd (_ bv61 6) ?x2272)))
 (let (($x1571 (bvsle ?x5654 n)))
 (or $x1571 $x2264))))))))
 ))
 (let ((?x2272 (sc_s 2)))
 (let (($x5056 (= ?x3851 ?x2272)))
 (let ((?x3257 (used_gas_s x_0 x_1 3)))
 (let ((?x9521 (bvadd (_ bv62 6) ?x2272)))
 (let ((?x245 (stack_s x_0 x_1 2 ?x9521)))
 (let ((?x7786 (bvadd (_ bv62 6) ?x3851)))
 (let ((?x10644 (stack_s x_0 x_1 3 ?x7786)))
 (let ((?x4124 (bvadd (_ bv63 6) ?x2272)))
 (let ((?x8925 (stack_s x_0 x_1 2 ?x4124)))
 (let ((?x5654 (bvadd (_ bv61 6) ?x2272)))
 (let ((?x2591 (stack_s x_0 x_1 2 ?x5654)))
 (let ((?x819 (bvadd (_ bv63 6) ?x3851)))
 (let ((?x1950 (stack_s x_0 x_1 3 ?x819)))
 (let (($x10052 (exc_halt_s 2)))
 (let (($x1583 (= $x10052 (or (exc_halt_s 1) (not (bvsle (_ bv0 6) (bvadd (_ bv63 6) (sc_s 1))))))))
 (let (($x6593 (forall ((w (_ BitVec 256)) )(let ((?x4593 (storage_s x_0 x_1 1 w)))
 (let ((?x2138 (storage_s x_0 x_1 2 w)))
 (= ?x2138 ?x4593))))
 ))
 (let (($x4712 (forall ((n (_ BitVec 6)) )(let ((?x1131 (stack_s x_0 x_1 1 n)))
 (let ((?x6101 (stack_s x_0 x_1 2 n)))
 (let (($x9760 (= ?x6101 ?x1131)))
 (let ((?x154 (sc_s 1)))
 (let ((?x3025 (bvadd (_ bv63 6) ?x154)))
 (let (($x6417 (bvsle ?x3025 n)))
 (or $x6417 $x9760))))))))
 ))
 (let ((?x154 (sc_s 1)))
 (let (($x2606 (= ?x2272 ?x154)))
 (let ((?x9804 (used_gas_s x_0 x_1 2)))
 (let (($x9134 (= ?x9804 (+ 3 (used_gas_s x_0 x_1 1)))))
 (let (($x9853 (= ?x8925 (ite (= (stack_s x_0 x_1 1 (bvadd (_ bv63 6) ?x154)) (_ bv0 256)) (_ bv1 256) (_ bv0 256)))))
 (let (($x9100 (not (bvsle (_ bv0 6) (bvadd (_ bv63 6) ?x72)))))
 (let (($x967 (not (= ((_ extract 6 6) (bvadd (_ bv1 7) (concat (_ bv0 1) ?x72))) (_ bv0 1)))))
 (let (($x8780 (exc_halt_s 1)))
 (let (($x1866 (= $x8780 (or $x57 $x967 $x9100))))
 (let (($x6642 (forall ((w (_ BitVec 256)) )(let ((?x3829 (storage_s x_0 x_1 0 w)))
 (let ((?x4593 (storage_s x_0 x_1 1 w)))
 (= ?x4593 ?x3829))))
 ))
 (let (($x3846 (forall ((n (_ BitVec 6)) )(let ((?x72 (sc_s 0)))
 (let ((?x9431 (bvadd (_ bv63 6) ?x72)))
 (let (($x8622 (bvsle ?x9431 n)))
 (let ((?x10276 (stack_s x_0 x_1 0 n)))
 (let ((?x1131 (stack_s x_0 x_1 1 n)))
 (let (($x1151 (= ?x1131 ?x10276)))
 (or $x1151 $x8622))))))))
 ))
 (let (($x10962 (= ?x154 (bvadd (_ bv1 6) ?x72))))
 (let ((?x1258 (used_gas_s x_0 x_1 1)))
 (let (($x2460 (= ?x1258 (+ 3 ?x7349))))
 (let ((?x9431 (bvadd (_ bv63 6) ?x72)))
 (let ((?x5799 (stack_s x_0 x_1 0 ?x9431)))
 (let (($x10564 (= (stack_s x_0 x_1 1 ?x9431) ?x5799)))
 (let ((?x3025 (bvadd (_ bv63 6) ?x154)))
 (let ((?x2625 (stack_s x_0 x_1 1 ?x3025)))
 (let (($x2715 (= ?x2625 ?x5799)))
 (let (($x4447 (forall ((w (_ BitVec 256)) )(let ((?x3829 (storage_s x_0 x_1 0 w)))
 (= ?x3829 (_ bv0 256))))
 ))
 (let (($x668 (= ?x7349 0)))
 (let (($x10706 (not $x57)))
 (let (($x2549 (= (stack_s x_0 x_1 0 (_ bv1 6)) x_1)))
 (let (($x3187 (= (stack_s x_0 x_1 0 (_ bv0 6)) x_0)))
 (let (($x884 (= ?x72 (_ bv2 6))))
 (and $x884 $x3187 $x2549 $x10706 $x668 $x4447 $x2715 $x10564 $x2460 $x10962 $x3846 $x6642 $x1866 $x9853 $x9134 $x2606 $x4712 $x6593 $x1583 (= ?x1950 ?x2591) (= (stack_s x_0 x_1 3 (bvadd (_ bv61 6) ?x3851)) ?x8925) (= ?x10644 ?x245) (= ?x3257 (+ 3 ?x9804)) $x5056 $x6165 $x7408 $x680 (= ?x2339 ?x10644) (= ?x11984 ?x1950) (= ?x11263 (+ 3 ?x3257)) $x951 $x7172 $x10377 $x6103 $x7481 (= (stack_s x_0 x_1 5 (bvadd (_ bv61 6) ?x4319)) ?x2339) (= (stack_s x_0 x_1 5 (bvadd (_ bv62 6) ?x4319)) ?x11984) $x9624 $x932 $x9718 $x10369 $x3563 $x225 $x5239 $x6013 $x8010 $x9493 $x375 $x221 (= (stack_t x_0 x_1 2 (bvadd (_ bv63 6) ?x9193)) ?x6488) (= (stack_t x_0 x_1 2 ?x10630) ?x6488) (= (stack_t x_0 x_1 2 ?x3138) ?x6386) (= ?x6032 (+ 3 ?x7141)) $x9971 $x2866 $x10683 (= $x10380 (or $x7822 $x11710 $x11933)) $x10432 $x9767 $x5378 $x7280 $x3431 $x2451 $x73 $x11055 $x58 $x11812 $x6460 (not (and $x9086 $x6150 $x618 $x2812))))))))))))))))))))))))))))))))))))))))))))))))))))))))))))))))))))))))))))))))))))))))))))))))))))))))))))))))))))
 )
(check-sat)
(get-proof)
